23 48 61 -1 -1 -1
23 48 61 -1 -1 -1
23 48 61 -1 -1 -1
23 48 61 -1 -1 -1
23 41 66 -1 -1 -1
23 41 66 -1 -1 -1
22 46 53 -1 -1 -1
22 46 53 -1 -1 -1
18 36 53 -1 -1 -1
18 36 53 -1 -1 -1
16 33 46 -1 -1 -1
16 33 46 -1 -1 -1
16 33 46 -1 -1 -1
16 33 46 -1 -1 -1
20 23 38 -1 -1 -1
20 23 38 -1 -1 -1
15 11 32 -1 -1 -1
15 11 32 -1 -1 -1
15 11 32 -1 -1 -1
15 11 32 -1 -1 -1
15 11 32 -1 -1 -1
15 11 32 -1 -1 -1
15 11 32 -1 -1 -1
15 11 32 -1 -1 -1
15 11 32 -1 -1 -1
15 11 32 -1 -1 -1
15 11 32 -1 -1 -1
15 11 32 -1 -1 -1
15 11 32 -1 -1 -1
15 11 32 -1 -1 -1
15 11 32 -1 -1 -1
15 11 32 -1 -1 -1
15 11 32 -1 -1 -1
15 11 32 -1 -1 -1
15 11 32 -1 -1 -1
15 11 32 -1 -1 -1
